14970
1 1 0 1 0 1 0 1 1 1 
8 8 8 8 8 8 8 8 8 5 5 5 5 5 5 5 5 5 5 5 5 5 5 5 5 5 9 5 9 9 9 9 9 9 8 1 1 1 1 1 1 1 5 1 3 1 3 3 3 3 1 3 3 3 3 3 3 3 3 3 3 3 3 3 3 3 3 3 3 3 3 0 0 0 0 0 0 0 0 7 7 7 7 7 7 7 7 7 7 7 
